%%% static parameters %%%
timespan = 1;
Fact = [1];
Distr1 = [15];
Distr2 = [20];
Clients_N = [100];
Demand_W = [15];
Lt0 = [4];
Lt1 = [4];
SS_ = [0.85];
DS_D = [20];
K = [200];
MA = [500];
%%% dynamic parameters %%%
lost_ratio_sales_ret_th = 0.008920860886960747;
lost_ratio_sales_ret_w = 9;
lost_ratio_sales_dis_th = 0.0025760270954230426;
lost_ratio_sales_dis_w = 47;
lost_ratio_sales_fac_th = 0.005568457649772163;
lost_ratio_sales_fac_w = 93;
stock_customer_MA_mean_relative_th = 0.1079018134599854;
stock_customer_MA_mean_relative_w = 6;
stock_distributor_MA_mean_relative_th = 0.8765408103229656;
stock_distributor_MA_mean_relative_w = 33;
stock_retailer_MA_mean_relative_th = 0.6893353669414297;
stock_retailer_MA_mean_relative_w = 52;
stock_factory_MA_mean_relative_th = 0.44457804429027836;
stock_factory_MA_mean_relative_w = 35;
